
(set-info :smt-lib-version 2.6)
(set-logic QF_SLIA)
(set-info :source |
Generated by: Denghang Hu,
Generated on: 20230329,
Application: Evaluate string solvers
Description: The instance consists of:
(1) a regular membership predicate from the real world
(2) a regular membership predicate to sanitize danger letters in javascript such as <,>,&,",'
(3) a lower bound for string length
Target solver: Ostrich, Z3str3, CVC5
|)
(set-info :license "https://creativecommons.org/licenses/by/4.0/")
(set-info :category "industrial")
(set-info :status unknown)
        ;test regex <input name="Builder.EnvisionOrgID" class="text-box single-line input-validation-error" id="Builder_EnvisionOrgID" type="text" value="HA" data-val-required="The Envision Org ID field is required." data-val="true" data-val-regex-pattern="^([a-zA-Z0-9]{1,6}\.){4,5}([a-zA-Z0-9]{1,6}){1}$" data-val-regex="Invalid ID format">
(declare-const X String)
(assert (str.in_re X (re.++ (re.++ (re.++ (str.to_re "<") (re.++ (str.to_re "i") (re.++ (str.to_re "n") (re.++ (str.to_re "p") (re.++ (str.to_re "u") (re.++ (str.to_re "t") (re.++ (str.to_re " ") (re.++ (str.to_re "n") (re.++ (str.to_re "a") (re.++ (str.to_re "m") (re.++ (str.to_re "e") (re.++ (str.to_re "=") (re.++ (str.to_re "\u{22}") (re.++ (str.to_re "B") (re.++ (str.to_re "u") (re.++ (str.to_re "i") (re.++ (str.to_re "l") (re.++ (str.to_re "d") (re.++ (str.to_re "e") (re.++ (str.to_re "r") (re.++ (re.diff re.allchar (str.to_re "\n")) (re.++ (str.to_re "E") (re.++ (str.to_re "n") (re.++ (str.to_re "v") (re.++ (str.to_re "i") (re.++ (str.to_re "s") (re.++ (str.to_re "i") (re.++ (str.to_re "o") (re.++ (str.to_re "n") (re.++ (str.to_re "O") (re.++ (str.to_re "r") (re.++ (str.to_re "g") (re.++ (str.to_re "I") (re.++ (str.to_re "D") (re.++ (str.to_re "\u{22}") (re.++ (str.to_re " ") (re.++ (str.to_re "c") (re.++ (str.to_re "l") (re.++ (str.to_re "a") (re.++ (str.to_re "s") (re.++ (str.to_re "s") (re.++ (str.to_re "=") (re.++ (str.to_re "\u{22}") (re.++ (str.to_re "t") (re.++ (str.to_re "e") (re.++ (str.to_re "x") (re.++ (str.to_re "t") (re.++ (str.to_re "-") (re.++ (str.to_re "b") (re.++ (str.to_re "o") (re.++ (str.to_re "x") (re.++ (str.to_re " ") (re.++ (str.to_re "s") (re.++ (str.to_re "i") (re.++ (str.to_re "n") (re.++ (str.to_re "g") (re.++ (str.to_re "l") (re.++ (str.to_re "e") (re.++ (str.to_re "-") (re.++ (str.to_re "l") (re.++ (str.to_re "i") (re.++ (str.to_re "n") (re.++ (str.to_re "e") (re.++ (str.to_re " ") (re.++ (str.to_re "i") (re.++ (str.to_re "n") (re.++ (str.to_re "p") (re.++ (str.to_re "u") (re.++ (str.to_re "t") (re.++ (str.to_re "-") (re.++ (str.to_re "v") (re.++ (str.to_re "a") (re.++ (str.to_re "l") (re.++ (str.to_re "i") (re.++ (str.to_re "d") (re.++ (str.to_re "a") (re.++ (str.to_re "t") (re.++ (str.to_re "i") (re.++ (str.to_re "o") (re.++ (str.to_re "n") (re.++ (str.to_re "-") (re.++ (str.to_re "e") (re.++ (str.to_re "r") (re.++ (str.to_re "r") (re.++ (str.to_re "o") (re.++ (str.to_re "r") (re.++ (str.to_re "\u{22}") (re.++ (str.to_re " ") (re.++ (str.to_re "i") (re.++ (str.to_re "d") (re.++ (str.to_re "=") (re.++ (str.to_re "\u{22}") (re.++ (str.to_re "B") (re.++ (str.to_re "u") (re.++ (str.to_re "i") (re.++ (str.to_re "l") (re.++ (str.to_re "d") (re.++ (str.to_re "e") (re.++ (str.to_re "r") (re.++ (str.to_re "_") (re.++ (str.to_re "E") (re.++ (str.to_re "n") (re.++ (str.to_re "v") (re.++ (str.to_re "i") (re.++ (str.to_re "s") (re.++ (str.to_re "i") (re.++ (str.to_re "o") (re.++ (str.to_re "n") (re.++ (str.to_re "O") (re.++ (str.to_re "r") (re.++ (str.to_re "g") (re.++ (str.to_re "I") (re.++ (str.to_re "D") (re.++ (str.to_re "\u{22}") (re.++ (str.to_re " ") (re.++ (str.to_re "t") (re.++ (str.to_re "y") (re.++ (str.to_re "p") (re.++ (str.to_re "e") (re.++ (str.to_re "=") (re.++ (str.to_re "\u{22}") (re.++ (str.to_re "t") (re.++ (str.to_re "e") (re.++ (str.to_re "x") (re.++ (str.to_re "t") (re.++ (str.to_re "\u{22}") (re.++ (str.to_re " ") (re.++ (str.to_re "v") (re.++ (str.to_re "a") (re.++ (str.to_re "l") (re.++ (str.to_re "u") (re.++ (str.to_re "e") (re.++ (str.to_re "=") (re.++ (str.to_re "\u{22}") (re.++ (str.to_re "H") (re.++ (str.to_re "A") (re.++ (str.to_re "\u{22}") (re.++ (str.to_re " ") (re.++ (str.to_re "d") (re.++ (str.to_re "a") (re.++ (str.to_re "t") (re.++ (str.to_re "a") (re.++ (str.to_re "-") (re.++ (str.to_re "v") (re.++ (str.to_re "a") (re.++ (str.to_re "l") (re.++ (str.to_re "-") (re.++ (str.to_re "r") (re.++ (str.to_re "e") (re.++ (str.to_re "q") (re.++ (str.to_re "u") (re.++ (str.to_re "i") (re.++ (str.to_re "r") (re.++ (str.to_re "e") (re.++ (str.to_re "d") (re.++ (str.to_re "=") (re.++ (str.to_re "\u{22}") (re.++ (str.to_re "T") (re.++ (str.to_re "h") (re.++ (str.to_re "e") (re.++ (str.to_re " ") (re.++ (str.to_re "E") (re.++ (str.to_re "n") (re.++ (str.to_re "v") (re.++ (str.to_re "i") (re.++ (str.to_re "s") (re.++ (str.to_re "i") (re.++ (str.to_re "o") (re.++ (str.to_re "n") (re.++ (str.to_re " ") (re.++ (str.to_re "O") (re.++ (str.to_re "r") (re.++ (str.to_re "g") (re.++ (str.to_re " ") (re.++ (str.to_re "I") (re.++ (str.to_re "D") (re.++ (str.to_re " ") (re.++ (str.to_re "f") (re.++ (str.to_re "i") (re.++ (str.to_re "e") (re.++ (str.to_re "l") (re.++ (str.to_re "d") (re.++ (str.to_re " ") (re.++ (str.to_re "i") (re.++ (str.to_re "s") (re.++ (str.to_re " ") (re.++ (str.to_re "r") (re.++ (str.to_re "e") (re.++ (str.to_re "q") (re.++ (str.to_re "u") (re.++ (str.to_re "i") (re.++ (str.to_re "r") (re.++ (str.to_re "e") (re.++ (str.to_re "d") (re.++ (re.diff re.allchar (str.to_re "\n")) (re.++ (str.to_re "\u{22}") (re.++ (str.to_re " ") (re.++ (str.to_re "d") (re.++ (str.to_re "a") (re.++ (str.to_re "t") (re.++ (str.to_re "a") (re.++ (str.to_re "-") (re.++ (str.to_re "v") (re.++ (str.to_re "a") (re.++ (str.to_re "l") (re.++ (str.to_re "=") (re.++ (str.to_re "\u{22}") (re.++ (str.to_re "t") (re.++ (str.to_re "r") (re.++ (str.to_re "u") (re.++ (str.to_re "e") (re.++ (str.to_re "\u{22}") (re.++ (str.to_re " ") (re.++ (str.to_re "d") (re.++ (str.to_re "a") (re.++ (str.to_re "t") (re.++ (str.to_re "a") (re.++ (str.to_re "-") (re.++ (str.to_re "v") (re.++ (str.to_re "a") (re.++ (str.to_re "l") (re.++ (str.to_re "-") (re.++ (str.to_re "r") (re.++ (str.to_re "e") (re.++ (str.to_re "g") (re.++ (str.to_re "e") (re.++ (str.to_re "x") (re.++ (str.to_re "-") (re.++ (str.to_re "p") (re.++ (str.to_re "a") (re.++ (str.to_re "t") (re.++ (str.to_re "t") (re.++ (str.to_re "e") (re.++ (str.to_re "r") (re.++ (str.to_re "n") (re.++ (str.to_re "=") (str.to_re "\u{22}"))))))))))))))))))))))))))))))))))))))))))))))))))))))))))))))))))))))))))))))))))))))))))))))))))))))))))))))))))))))))))))))))))))))))))))))))))))))))))))))))))))))))))))))))))))))))))))))))))))))))))))))))))))))))))))))))))))))))))))) (re.++ (str.to_re "") (re.++ ((_ re.loop 4 5) (re.++ ((_ re.loop 1 6) (re.union (re.range "a" "z") (re.union (re.range "A" "Z") (re.range "0" "9")))) (str.to_re "."))) ((_ re.loop 1 1) ((_ re.loop 1 6) (re.union (re.range "a" "z") (re.union (re.range "A" "Z") (re.range "0" "9")))))))) (re.++ (str.to_re "") (re.++ (str.to_re "\u{22}") (re.++ (str.to_re " ") (re.++ (str.to_re "d") (re.++ (str.to_re "a") (re.++ (str.to_re "t") (re.++ (str.to_re "a") (re.++ (str.to_re "-") (re.++ (str.to_re "v") (re.++ (str.to_re "a") (re.++ (str.to_re "l") (re.++ (str.to_re "-") (re.++ (str.to_re "r") (re.++ (str.to_re "e") (re.++ (str.to_re "g") (re.++ (str.to_re "e") (re.++ (str.to_re "x") (re.++ (str.to_re "=") (re.++ (str.to_re "\u{22}") (re.++ (str.to_re "I") (re.++ (str.to_re "n") (re.++ (str.to_re "v") (re.++ (str.to_re "a") (re.++ (str.to_re "l") (re.++ (str.to_re "i") (re.++ (str.to_re "d") (re.++ (str.to_re " ") (re.++ (str.to_re "I") (re.++ (str.to_re "D") (re.++ (str.to_re " ") (re.++ (str.to_re "f") (re.++ (str.to_re "o") (re.++ (str.to_re "r") (re.++ (str.to_re "m") (re.++ (str.to_re "a") (re.++ (str.to_re "t") (re.++ (str.to_re "\u{22}") (str.to_re ">")))))))))))))))))))))))))))))))))))))))))
; sanitize danger characters:  < > ' " &
(assert (not (str.in_re X (re.++ re.all (re.union (str.to_re "\u{3c}") (str.to_re "\u{3e}") (str.to_re "\u{27}") (str.to_re "\u{22}") (str.to_re "\u{26}")) re.all))))
(assert (< 20 (str.len X)))
(check-sat)
(get-model)(exit)